qe/outputs/qe/cbrdelay_obs_newl/T=6,eliminate=[I_0,I_1,I_2,I_3,I_4,I_5,L_4,L_5,C,B,lhs=L_3],pl=2.smt2
; benchmark generated from python API
(set-info :status unknown)
(declare-fun L_0 () Real)
(declare-fun S_1 () Real)
(declare-fun S_3 () Real)
(declare-fun A_0 () Real)
(declare-fun S_0 () Real)
(declare-fun A_1 () Real)
(declare-fun L_1 () Real)
(declare-fun S_2 () Real)
(declare-fun L_3 () Real)
(declare-fun A_4 () Real)
(declare-fun S_4 () Real)
(declare-fun S_5 () Real)
(declare-fun A_3 () Real)
(declare-fun L_2 () Real)
(declare-fun A_2 () Real)
(declare-fun A_5 () Real)
(assert
 (let (($x18425 (<= (+ (* (- 1.0) A_0) (* (- 1.0) S_3) (* 2.0 S_1) L_0) 0.0)))
 (let (($x39 (>= L_0 0.0)))
 (let (($x2199 (<= (+ (* (- 1.0) L_1) A_1 (* (- 1.0) S_2)) 0.0)))
 (let (($x79878 (or $x2199 (<= (+ S_5 (* (- 1.0) A_4) L_3 (* (- 1.0) S_2) S_0) 0.0))))
 (let ((?x417 (* (- 1.0) S_3)))
 (let ((?x3796 (* 2.0 L_3)))
 (let ((?x3984 (* 2.0 S_5)))
 (let (($x24973 (<= (+ S_5 (* (- 1.0) L_1) A_1 (* (- 1.0) A_4) L_3 ?x417) 0.0)))
 (let ((?x7789 (* 5.0 L_3)))
 (let ((?x3842 (* (- 2.0) S_1)))
 (let ((?x9619 (* (- 5.0) A_3)))
 (let ((?x13229 (* 5.0 A_1)))
 (let ((?x13204 (* (- 5.0) L_1)))
 (let (($x76 (= L_3 L_2)))
 (let ((?x1317 (* (- 1.0) S_0)))
 (let ((?x13016 (* 5.0 L_2)))
 (let ((?x13215 (* (- 5.0) A_2)))
 (let (($x66 (= L_2 L_1)))
 (let ((?x445 (* (- 1.0) A_4)))
 (let ((?x279 (* (- 1.0) L_1)))
 (let ((?x439 (* (- 1.0) A_2)))
 (let ((?x404 (* (- 1.0) S_1)))
 (let ((?x1316 (* 4.0 A_1)))
 (let ((?x1315 (* (- 4.0) L_1)))
 (let ((?x1314 (* 4.0 L_2)))
 (let ((?x1313 (* (- 4.0) A_2)))
 (let (($x51684 (<= 0.0 (+ S_5 ?x445 L_3))))
 (let (($x50896 (not (<= 0.0 (+ L_2 (* (- 1.0) L_3))))))
 (let ((?x3902 (* 2.0 S_3)))
 (let ((?x437 (* (- 1.0) A_1)))
 (let ((?x3802 (* (- 2.0) S_5)))
 (let ((?x296 (* (- 1.0) L_2)))
 (let (($x56 (= L_1 L_0)))
 (let (($x3024 (<= (+ (* (/ 1.0 4.0) S_5) (* (- (/ 3.0 4.0)) L_1) (* (/ 3.0 4.0) A_1) ?x417) 0.0)))
 (let (($x79057 (or $x66 (<= (+ ?x1313 ?x1314 ?x1315 ?x1316 S_4 (* (- 1.0) A_0) L_0) 0.0))))
 (let ((?x2125 (* (- (/ 1.0 2.0)) S_4)))
 (let ((?x2057 (* (/ 1.0 2.0) A_1)))
 (let ((?x1048 (* (- (/ 1.0 2.0)) L_1)))
 (let (($x53425 (or (<= (+ S_5 ?x1048 ?x2057 ?x2125 ?x445 L_3) 0.0) (<= (+ S_5 (* (- (/ 1.0 3.0)) S_4) ?x445 L_3 (* (/ 1.0 3.0) S_0)) 0.0))))
 (let (($x79657 (or (<= (+ ?x279 A_1 (* (- 1.0) S_4)) (- 10.0)) (<= (+ (* (- (/ 1.0 3.0)) S_4) (* (/ 1.0 3.0) S_0)) (- 5.0)))))
 (let (($x80338 (or (<= (+ (* (- (/ 1.0 3.0)) S_5) (* (- (/ 1.0 3.0)) L_1) (* (/ 1.0 3.0) A_1)) (- 5.0)) $x51684 (<= (+ (* (- (/ 1.0 4.0)) S_5) (* (/ 1.0 4.0) S_0)) (- 5.0)))))
 (let ((?x1304 (* 3.0 A_1)))
 (let ((?x1303 (* (- 3.0) L_1)))
 (let ((?x1302 (* 3.0 L_2)))
 (let ((?x1301 (* (- 3.0) A_2)))
 (let (($x79737 (or $x56 (<= (+ A_2 ?x296 (* (- 1.0) S_5) L_1 ?x437 S_3) 0.0) $x51684)))
 (let ((?x3807 (* (- 2.0) S_3)))
 (let ((?x5861 (* (/ 2.0 3.0) S_4)))
 (let ((?x2343 (* (/ 4.0 3.0) A_1)))
 (let ((?x3439 (* (- (/ 4.0 3.0)) L_1)))
 (let (($x79698 (or (<= (+ (* (/ 1.0 2.0) S_4) ?x417 (* (/ 1.0 2.0) S_0)) 0.0) (<= (+ ?x3439 ?x2343 ?x5861 ?x3807) 0.0))))
 (let (($x55662 (or $x56 (<= (+ A_2 ?x296 L_1 ?x437 (* (- 1.0) S_4) S_2) 0.0))))
 (let (($x2777 (<= (+ (* (- (/ 2.0 3.0)) S_5) (* (/ 1.0 3.0) L_1) (* (- (/ 1.0 3.0)) A_1) S_3) 0.0)))
 (let ((?x4079 (* 3.0 L_3)))
 (let ((?x3921 (* (- 3.0) A_3)))
 (let ((?x1308 (* (- 3.0) L_2)))
 (let ((?x1307 (* 3.0 A_2)))
 (let ((?x1088 (* 2.0 A_1)))
 (let ((?x1111 (* (- 2.0) L_1)))
 (let ((?x1190 (* 2.0 L_2)))
 (let ((?x1234 (* (- 2.0) A_2)))
 (let ((?x1310 (* (- 3.0) A_1)))
 (let ((?x1309 (* 3.0 L_1)))
 (let ((?x431 (* (- 1.0) S_5)))
 (let ((?x424 (* (- 1.0) S_4)))
 (let ((?x1296 (* (- 2.0) A_1)))
 (let ((?x1295 (* 2.0 L_1)))
 (let ((?x1294 (* (- 2.0) L_2)))
 (let ((?x1293 (* 2.0 A_2)))
 (let ((?x8428 (* (- 4.0) A_1)))
 (let ((?x8373 (* 4.0 L_1)))
 (let ((?x2260 (* (- 4.0) L_2)))
 (let ((?x4055 (* 4.0 A_2)))
 (let ((?x8420 (+ (* (/ 3.0 2.0) L_1) (* (- (/ 3.0 2.0)) A_1) ?x424 (* (/ 3.0 2.0) A_3) S_0 (* (- (/ 3.0 2.0)) L_3))))
 (let (($x78529 (or $x76 (<= (+ ?x1293 ?x1294 (* (- 2.0) A_3) S_2 ?x404 ?x3796) 0.0))))
 (let (($x53820 (or $x76 (<= (+ ?x1293 ?x1294 L_1 ?x437 (* (- 2.0) A_3) S_3 ?x3796) 0.0))))
 (let ((?x12184 (* 6.0 L_3)))
 (let ((?x7037 (* (- 6.0) A_3)))
 (let ((?x10183 (* (- 6.0) L_2)))
 (let ((?x12868 (* 6.0 A_2)))
 (let (($x2926 (<= (+ ?x4055 ?x2260 (* (- 4.0) A_3) S_3 ?x1317 (* 4.0 L_3)) 0.0)))
 (let (($x78367 (or $x76 (<= (+ ?x1307 ?x1308 ?x3921 (* (- 1.0) A_0) S_3 ?x4079 L_0) 0.0))))
 (let (($x78222 (or $x76 (<= (+ ?x1293 ?x1294 S_4 (* (- 2.0) A_3) ?x417 ?x3796) 0.0))))
 (let (($x4287 (<= (+ (* (- 3.0) S_5) (* (- 1.0) A_0) (* 4.0 S_3) L_0) 0.0)))
 (let (($x17872 (<= (+ (* 5.0 A_2) (* (- 5.0) L_2) S_4 ?x9619 ?x1317 ?x7789) 0.0)))
 (let (($x28368 (<= (+ ?x4055 ?x2260 S_4 (* (- 4.0) A_3) ?x404 (* 4.0 L_3)) 0.0)))
 (let (($x12856 (<= (+ (* 5.0 A_2) (* (- 5.0) L_2) S_5 ?x9619 ?x404 ?x7789) 0.0)))
 (let (($x3445 (<= (+ (* (- (/ 1.0 3.0)) S_5) (* (/ 2.0 3.0) L_1) (* (- (/ 2.0 3.0)) A_1) S_2) 0.0)))
 (let (($x25377 (<= (+ ?x4055 ?x2260 S_5 L_1 ?x437 (* (- 4.0) A_3) (* 4.0 L_3)) 0.0)))
 (let (($x5704 (<= (+ ?x1234 ?x1190 ?x431 (* 2.0 A_3) S_2 (* (- 2.0) L_3)) 0.0)))
 (let (($x599 (<= 0.0 (+ ?x296 L_1))))
 (let (($x78241 (or (<= (+ S_5 ?x279 A_1 (* (- 2.0) S_4)) 0.0) (<= (+ (* (/ 3.0 5.0) S_5) ?x424 (* (/ 2.0 5.0) S_0)) 0.0))))
 (let ((?x1344 (* (- 1.0) A_0)))
 (let ((?x7413 (* (- 5.0) L_2)))
 (let ((?x13196 (* 5.0 A_2)))
 (let (($x28445 (<= (+ ?x4055 ?x2260 S_4 (* (- 4.0) A_3) ?x1344 (* 4.0 L_3) L_0) 0.0)))
 (let (($x5869 (<= (+ (* (- (/ 1.0 3.0)) S_5) ?x1344 (* (/ 4.0 3.0) S_1) L_0) 0.0)))
 (let (($x25373 (<= (+ ?x1234 ?x1190 ?x279 A_1 ?x424 (* 2.0 A_3) (* (- 2.0) L_3)) 0.0)))
 (let (($x13519 (<= (+ ?x1301 ?x1302 ?x424 (* 3.0 A_3) S_0 (* (- 3.0) L_3)) 0.0)))
 (let (($x25390 (<= (+ ?x1301 ?x1302 ?x431 ?x279 A_1 (* 3.0 A_3) (* (- 3.0) L_3)) 0.0)))
 (let (($x13261 (<= (+ ?x1313 ?x1314 ?x431 (* 4.0 A_3) S_0 (* (- 4.0) L_3)) 0.0)))
 (let (($x80400 (or $x76 (<= (+ ?x1293 ?x1294 (* (- 2.0) A_3) S_1 ?x1317 ?x3796) 0.0))))
 (let (($x55188 (or $x76 (<= (+ ?x1293 ?x1294 (* (- 2.0) A_3) ?x1344 S_2 ?x3796 L_0) 0.0))))
 (let (($x78704 (or $x76 (<= (+ A_2 ?x296 L_1 ?x437 (* (- 1.0) A_3) S_2 L_3) 0.0))))
 (let (($x57707 (or $x76 (<= (+ A_2 ?x296 (* (- 1.0) A_3) ?x1344 S_1 L_3 L_0) 0.0))))
 (let (($x12795 (<= (+ ?x1234 ?x1190 (* 2.0 A_3) ?x417 S_0 (* (- 2.0) L_3)) 0.0)))
 (let (($x79648 (or $x66 $x12795 (<= (+ ?x439 L_2 ?x279 A_1 A_3 ?x417 (* (- 1.0) L_3)) 0.0))))
 (let ((?x13361 (* 6.0 A_1)))
 (let ((?x13397 (* (- 6.0) L_1)))
 (let ((?x13384 (* 6.0 L_2)))
 (let ((?x13395 (* (- 6.0) A_2)))
 (let (($x79311 (or $x76 (<= (+ ?x1307 ?x1308 S_4 ?x3921 (* (- 1.0) S_2) ?x4079) 0.0))))
 (let (($x57198 (or $x76 (<= (+ ?x1111 ?x1088 (* (- 2.0) A_3) S_3 ?x1317 ?x3796) 0.0))))
 (let ((?x2983 (* 4.0 L_3)))
 (let ((?x2791 (* (- 4.0) A_3)))
 (let ((?x2213 (* 2.0 S_4)))
 (let (($x80005 (or $x66 (<= (+ ?x439 L_2 A_3 ?x417 S_1 (* (- 1.0) L_3)) 0.0))))
 (let (($x50239 (or $x76 (<= (+ ?x279 A_1 (* (- 1.0) A_3) S_1 ?x1317 L_3) 0.0))))
 (let ((?x2256 (* (- 3.0) L_3)))
 (let ((?x15756 (* 2.0 S_1)))
 (let ((?x3861 (* 3.0 A_3)))
 (let (($x78738 (or $x56 (<= (+ A_2 ?x296 L_1 ?x437 (* (- 1.0) S_2) S_0) 0.0))))
 (let (($x12893 (<= (+ ?x1234 ?x1190 ?x424 (* 2.0 A_3) S_1 (* (- 2.0) L_3)) 0.0)))
 (let ((?x3781 (* (- 2.0) L_3)))
 (let ((?x3845 (* 2.0 S_0)))
 (let ((?x3775 (* 2.0 A_3)))
 (let (($x20360 (<= (+ S_5 ?x1111 ?x1088 (* (- 2.0) A_3) (* (- 1.0) S_2) ?x3796) 0.0)))
 (let (($x20389 (<= (+ ?x3984 ?x13204 ?x13229 ?x9619 (* (- 2.0) A_0) ?x7789 (* 2.0 L_0)) 0.0)))
 (let ((?x3868 (* 2.0 L_0)))
 (let ((?x3867 (* (- 2.0) A_0)))
 (let ((?x442 (* (- 1.0) A_3)))
 (let (($x78601 (or $x56 (<= (+ L_1 ?x437 ?x424 A_3 S_1 (* (- 1.0) L_3)) 0.0))))
 (let ((?x8376 (* (/ 5.0 2.0) L_3)))
 (let ((?x8395 (* (- (/ 5.0 2.0)) A_3)))
 (let ((?x5466 (* (/ 5.0 2.0) A_1)))
 (let ((?x5476 (* (- (/ 5.0 2.0)) L_1)))
 (let (($x78502 (or $x56 (<= (+ L_1 ?x437 A_3 ?x3807 ?x15756 (* (- 1.0) L_3)) 0.0))))
 (let (($x12540 (<= (+ ?x424 (* (- (/ 1.0 2.0)) A_0) (* (/ 3.0 2.0) S_2) (* (/ 1.0 2.0) L_0)) 0.0)))
 (let (($x55464 (or $x599 (<= (+ ?x439 L_2 ?x431 A_3 S_3 (* (- 1.0) L_3)) 0.0))))
 (let (($x79243 (or $x76 (<= (+ ?x1293 ?x1294 S_5 ?x424 (* (- 2.0) A_3) ?x3796) 0.0))))
 (let (($x59906 (or $x66 (<= (+ ?x1301 ?x1302 ?x1303 ?x1304 S_4 (* (- 1.0) S_2)) 0.0))))
 (let (($x78650 (or $x66 (<= (+ ?x1313 ?x1314 S_5 ?x1315 ?x1316 (* (- 1.0) S_2)) 0.0))))
 (let (($x3175 (<= (+ ?x1293 ?x1294 (* (- 2.0) A_3) S_3 (* (- 1.0) S_2) ?x3796) 0.0)))
 (let (($x12781 (<= (+ ?x439 L_2 A_3 (* (- 1.0) S_2) S_0 (* (- 1.0) L_3)) 0.0)))
 (let (($x53999 (or $x76 (<= (+ ?x4055 ?x2260 S_5 ?x2791 (* (- 1.0) S_2) ?x2983) 0.0))))
 (let (($x79219 (or $x76 (<= (+ ?x279 A_1 ?x442 S_3 (* (- 1.0) S_2) L_3) 0.0))))
 (let (($x80358 (or $x56 $x76 (<= (+ ?x3802 L_1 ?x437 A_3 ?x3902 (* (- 1.0) L_3)) 0.0))))
 (let ((?x3794 (* (/ 3.0 2.0) L_3)))
 (let ((?x410 (* (- 1.0) S_2)))
 (let ((?x3804 (* (- (/ 3.0 2.0)) A_3)))
 (let ((?x2204 (* (/ 3.0 2.0) A_1)))
 (let ((?x2203 (* (- (/ 3.0 2.0)) L_1)))
 (let ((?x2489 (* (- (/ 1.0 2.0)) L_3)))
 (let ((?x3801 (* (/ 1.0 2.0) A_3)))
 (let ((?x2122 (* (- (/ 1.0 2.0)) A_1)))
 (let ((?x2154 (* (/ 1.0 2.0) L_1)))
 (let (($x54312 (or $x66 (<= (+ ?x439 L_2 ?x424 A_3 S_2 (* (- 1.0) L_3)) 0.0))))
 (let (($x3844 (<= (+ ?x1111 ?x1088 (* (- 2.0) A_3) (* 2.0 S_2) ?x3842 ?x3796) 0.0)))
 (let (($x8417 (<= (+ ?x3802 ?x8373 ?x8428 (* 4.0 A_3) ?x3845 (* (- 4.0) L_3)) 0.0)))
 (let (($x3179 (<= (+ ?x1234 ?x1190 A_1 A_3 (* (- 1.0) L_3) (* (- 1.0) L_0)) 0.0)))
 (let (($x813 (not $x56)))
 (let (($x3870 (<= (+ ?x1111 ?x1088 (* (- 2.0) A_3) ?x3867 (* 2.0 S_2) ?x3796 ?x3868) 0.0)))
 (let (($x128 (>= S_1 S_0)))
 (let (($x131 (>= S_2 S_1)))
 (let (($x134 (>= S_3 S_2)))
 (let (($x137 (>= S_4 S_3)))
 (let (($x142 (>= A_1 A_0)))
 (let (($x144 (>= A_3 A_2)))
 (let (($x145 (>= A_4 A_3)))
 (let (($x146 (>= A_5 A_4)))
 (and (<= (+ A_2 ?x296) S_5) (<= (+ A_1 ?x279) S_4) $x146 $x145 $x144 $x142 $x137 $x134 $x131 $x128 (or $x66 (not $x599)) (or $x56 (not (<= 0.0 (+ ?x279 L_0)))) (or (<= (- 5.0) (+ L_1 ?x437 S_0)) (<= (+ ?x410 S_0) (- 5.0))) (or (not (<= (- 5.0) (+ L_1 ?x437 S_0))) $x2199) (<= (+ S_5 (* (- 1.0) A_5) L_3) 0.0) (or $x66 (<= (+ ?x439 L_2 ?x279 A_1) (- 5.0))) (or $x76 $x3870) (or $x56 $x76 $x599 (= (+ ?x1293 ?x1294 L_1 ?x437 ?x442 L_3) 0.0)) (or $x66 $x813 $x3179) (or $x56 (<= (+ ?x2154 ?x2122 ?x424 ?x3801 S_2 ?x2489) 0.0)) (or $x50896 $x76) (or $x76 (not $x66) (<= (+ A_2 ?x279 ?x442 L_3) (- 5.0))) (or $x76 (<= (+ ?x1307 ?x1308 ?x3921 S_3 ?x404 ?x4079) 0.0)) (or $x76 (<= (+ ?x431 S_3) (- 5.0))) (or $x76 (<= (+ ?x3802 (* 3.0 S_3) ?x410) 0.0)) (or $x56 (<= (+ ?x3802 ?x1295 ?x1296 ?x3775 (* 2.0 S_2) ?x3781) 0.0)) (or $x56 $x8417) (or $x76 (<= (+ ?x2203 ?x2204 ?x3804 S_2 ?x1317 ?x3794) 0.0)) (or $x76 $x3844) $x54312 (or $x66 (<= (+ ?x1234 ?x1190 ?x1111 ?x1088 S_3 ?x410) 0.0)) (or $x2199 (<= (+ (* (/ 1.0 3.0) S_3) ?x410 (* (/ 2.0 3.0) S_0)) 0.0)) (or $x2199 (<= (+ (* (/ 1.0 4.0) S_4) ?x410 (* (/ 3.0 4.0) S_0)) 0.0)) (or $x56 (<= (+ ?x2154 ?x2122 ?x3801 ?x410 S_0 ?x2489) 0.0)) (or $x76 (<= (+ ?x2203 ?x2204 S_4 ?x3804 ?x410 ?x3794) 0.0)) (or $x76 (<= (+ ?x1303 ?x1304 ?x3921 ?x3867 ?x3902 ?x4079 ?x3868) 0.0)) $x80358 $x79219 (or $x66 (<= 0.0 (+ ?x1293 ?x296 L_1 ?x437 ?x442)) $x50896) (or $x66 (<= (+ ?x1301 ?x1302 ?x1303 ?x1304 S_3 ?x404) 0.0)) (or $x66 (<= (+ ?x1301 ?x1302 ?x1303 ?x1304 ?x1344 S_3 L_0) 0.0)) (or $x66 (<= (+ ?x1313 ?x1314 ?x1315 ?x1316 S_3 ?x1317) 0.0)) (or $x2199 (<= (+ S_5 (* (- 5.0) S_2) (* 4.0 S_0)) 0.0)) $x53999 (or $x66 $x2199 $x12781) (or $x76 $x3175) $x78650 $x59906 (or $x76 (<= (+ A_2 ?x296 ?x442 L_3) (- 5.0))) $x79243 (or $x56 $x76 (not $x66) (<= (+ ?x1293 ?x279 ?x437 ?x442 L_3) 0.0)) (or $x56 (<= (+ ?x1307 ?x1308 ?x1309 ?x1310 ?x424 S_0) 0.0)) (or $x66 (<= (+ ?x13215 ?x13016 S_5 ?x13204 ?x13229 ?x1344 L_0) 0.0)) (not (<= (+ A_2 ?x296) S_4)) $x55464 (<= (+ ?x2154 ?x2122 ?x2125 S_2) 0.0) $x12540 (<= (+ (* (- 2.0) S_4) (* 3.0 S_2) ?x404) 0.0) (or (<= (+ ?x431 ?x1344 (* 2.0 S_2) L_0) 0.0) $x51684) (<= (+ ?x424 S_2) (- 5.0)) (or (<= (+ (* (- (/ 1.0 2.0)) S_5) (* (/ 1.0 2.0) S_2)) (- 5.0)) $x51684) (or (<= (+ ?x431 S_3) (- 5.0)) $x51684) (<= (+ S_4 (* (- 3.0) S_3) ?x15756) 0.0) (<= (+ S_5 (* (- 4.0) S_3) (* 3.0 S_1)) 0.0) $x78502 (or $x76 (<= (+ ?x1111 ?x1088 ?x2213 (* (- 2.0) A_3) ?x3807 ?x3796) 0.0)) (or $x76 (<= (+ ?x1315 ?x1316 ?x2213 ?x2791 ?x3867 ?x2983 ?x3868) 0.0)) (or $x76 (<= (+ ?x5476 ?x5466 S_4 ?x8395 ?x1317 ?x8376) 0.0)) (or $x76 (<= (+ ?x3984 ?x1303 ?x1304 ?x3921 ?x3807 ?x4079) 0.0)) (or $x56 (<= (+ ?x296 L_1 ?x437 ?x424 A_3 S_1) 0.0) $x50896) $x78601 (or $x76 (<= (+ S_5 ?x279 A_1 ?x424 ?x442 L_3) 0.0)) (<= (+ (* (/ 1.0 2.0) S_5) ?x424 (* (/ 1.0 2.0) S_1)) 0.0) (or $x76 (<= (+ ?x279 A_1 ?x442 ?x3867 ?x15756 L_3 ?x3868) 0.0)) (or $x76 $x20389) (or $x76 $x20360) (<= (+ S_5 ?x2125 ?x445 L_3 (* (/ 1.0 2.0) S_1)) 0.0) (or $x56 (<= (+ ?x1295 ?x1296 ?x3775 ?x3807 ?x3845 ?x3781) 0.0)) (or $x56 (<= (+ ?x1293 ?x1294 ?x1295 ?x1296 ?x417 S_0) 0.0)) (or $x66 (<= (+ ?x1234 ?x1190 S_5 ?x1111 ?x1088 ?x424) 0.0)) (or $x66 $x12893) (or $x76 (<= (+ ?x1307 ?x1308 S_5 ?x3921 ?x417 ?x4079) 0.0)) (or $x599 (<= (+ ?x1301 ?x1302 ?x431 ?x3861 S_1 ?x2256) 0.0)) $x78738 (or $x56 (<= (+ ?x3802 ?x1309 ?x1310 ?x3861 ?x15756 ?x2256) 0.0)) (or $x56 (<= (+ A_2 ?x296 L_1 ?x437 ?x417 S_1) 0.0)) (or $x66 (<= (+ ?x439 L_2 ?x279 A_1 ?x1344 S_1 L_0) 0.0)) (<= (+ ?x2125 (* (/ 1.0 2.0) S_1)) (- 5.0)) (<= (+ ?x424 ?x15756 ?x1317) 0.0) (or (<= (+ (* (- (/ 3.0 2.0)) S_5) (* (/ 5.0 2.0) S_2) ?x1317) 0.0) $x51684) (or (<= (+ ?x3802 (* 3.0 S_3) ?x410) 0.0) $x51684) $x50239 $x80005 (or $x66 (<= (+ ?x1234 ?x1190 ?x1111 ?x1088 ?x1344 S_2 L_0) 0.0)) (or $x66 (<= (+ ?x1234 ?x1190 ?x1111 ?x1088 S_4 ?x417) 0.0)) (or $x76 (<= (+ ?x1303 ?x1304 ?x3921 ?x3902 ?x3842 ?x4079) 0.0)) (or $x76 (<= (+ ?x1315 ?x1316 ?x2213 ?x2791 ?x3842 ?x2983) 0.0)) $x57198 $x79311 (or $x66 (<= (+ ?x13395 ?x13384 S_5 ?x13397 ?x13361 ?x1317) 0.0)) (or $x76 (<= (+ S_5 ?x1303 ?x1304 ?x3921 ?x1317 ?x4079) 0.0)) $x79648 (or (<= (+ ?x417 S_0) (- 10.0)) (<= (+ ?x279 A_1 ?x417) (- 5.0))) $x57707 $x78704 (or $x76 (<= (+ ?x1307 ?x1308 ?x3921 S_2 ?x1317 ?x4079) 0.0)) $x55188 (<= (+ ?x2125 ?x1344 (* (/ 3.0 2.0) S_1) L_0) 0.0) (or $x76 $x5869) (or $x76 (<= (+ (* (- 4.0) S_5) (* 5.0 S_3) ?x1317) 0.0)) (or $x76 (<= (+ (* (- (/ 2.0 3.0)) S_5) (* (/ 5.0 3.0) S_1) ?x1317) 0.0)) $x80400 (or $x599 $x13261 $x25390) (or $x66 $x13519 $x25373) (or $x5869 $x51684) (or $x76 $x28445) (or $x76 (<= (+ ?x13196 ?x7413 S_5 ?x9619 ?x1344 ?x7789 L_0) 0.0)) $x78241 (or $x76 $x3445) (or $x599 $x5704) (or $x76 $x25377) (or $x3445 $x51684) (or $x76 $x12856) (or $x76 $x28368) (or (<= (+ ?x431 (* 2.0 S_2) ?x404) 0.0) $x51684) (or (<= (+ (* (- 4.0) S_5) (* 5.0 S_3) ?x1317) 0.0) $x51684) (or (<= (+ (* (- 3.0) S_5) (* 4.0 S_3) ?x404) 0.0) $x51684) (or $x76 $x17872) (or (<= (+ (* (- (/ 2.0 3.0)) S_5) (* (/ 5.0 3.0) S_1) ?x1317) 0.0) $x51684) (or $x4287 $x51684) $x78222 $x78367 (or $x76 $x2926) (or $x76 (<= (+ ?x12868 ?x10183 S_5 ?x7037 ?x1317 ?x12184) 0.0)) $x53820 $x78529 (<= (+ (* (- 3.0) S_4) (* 4.0 S_2) ?x1317) 0.0) (or $x56 (<= ?x8420 0.0)) (<= (+ S_5 (* (- 3.0) S_4) (* 2.0 S_2)) 0.0) (or $x56 (<= (+ ?x1293 ?x1294 ?x431 ?x1295 ?x1296 S_2) 0.0) $x51684) (or $x56 (<= (+ ?x4055 ?x2260 ?x431 ?x8373 ?x8428 S_0) 0.0) $x51684) (or $x56 (not $x66) (<= (+ A_2 ?x437 ?x424 S_2) 0.0)) (or $x66 (<= (+ ?x1301 ?x1302 S_5 ?x1303 ?x1304 ?x417) 0.0)) (or $x56 (<= (+ ?x1293 ?x1294 ?x1295 ?x1296 ?x424 S_1) 0.0)) (or $x76 (<= (+ ?x279 A_1 ?x442 L_3) (- 10.0))) (or $x56 (<= (+ ?x1307 ?x1308 ?x431 ?x1309 ?x1310 S_1) 0.0) $x51684) (or $x66 (<= (+ ?x1234 ?x1190 ?x1111 ?x1088 S_1 ?x1317) 0.0)) (or $x66 (<= (+ ?x1234 ?x1190 ?x1111 ?x1088 S_2 ?x404) 0.0)) (or $x76 (<= (+ ?x1307 ?x1308 L_1 ?x437 S_4 ?x3921 ?x4079) 0.0)) (or $x2777 $x51684) (or (<= (+ (* (- (/ 1.0 3.0)) S_5) (* (/ 1.0 3.0) S_1)) (- 5.0)) $x51684) $x55662 $x79698 $x79737 (or $x66 (<= (+ ?x1301 ?x1302 ?x1303 ?x1304 S_2 ?x1317) 0.0)) $x80338 $x79657 $x53425 $x79057 (or $x3024 (<= (+ (* (/ 2.0 5.0) S_5) ?x417 (* (/ 3.0 5.0) S_0)) 0.0)) (or $x56 (<= (+ ?x296 ?x3802 L_1 ?x437 A_3 ?x3902) 0.0) $x50896 $x51684) (or $x66 (<= (+ ?x13215 ?x13016 S_5 ?x13204 ?x13229 ?x404) 0.0)) (or $x66 (<= (+ ?x1313 ?x1314 ?x1315 ?x1316 S_4 ?x404) 0.0)) (or $x66 (<= (+ ?x439 L_2 S_5 ?x279 A_1 ?x445 L_3) 0.0)) (or $x66 (<= (+ ?x13215 ?x13016 ?x13204 ?x13229 S_4 ?x1317) 0.0)) (or $x76 (<= (+ ?x3984 ?x13204 ?x13229 ?x9619 ?x3842 ?x7789) 0.0)) (or $x24973 (<= (+ ?x3984 (* (- 2.0) A_4) ?x3796 ?x417 S_0) 0.0)) $x79878 (<= (+ S_5 ?x445 L_3 ?x417 S_1) 0.0) (<= (+ S_5 ?x424 ?x445 L_3 S_2) 0.0) $x39 (<= (+ ?x1344 S_0 L_0) 0.0) (<= (+ L_1 ?x437 S_1) 0.0) (<= (+ ?x417 S_1) (- 5.0)) (<= (+ ?x3807 (* 3.0 S_1) ?x1317) 0.0) $x18425))))))))))))))))))))))))))))))))))))))))))))))))))))))))))))))))))))))))))))))))))))))))))))))))))))))))))))))))))))))))))))))))))))))))))))))))))))))))))))))))))))))))))))
(check-sat)
